
Log for 'Initiate' Clone_1 (V12.7.1.0) Sat Mar 24 20:27:49 2018

Presolve time = 0.00 sec. (0.03 ticks)

Dual simplex solved model.


Log for 'Initiate' Clone_1 (V12.7.1.0) Sat Mar 24 20:28:20 2018

Tried aggregator 0 times.
No LP presolve or aggregator reductions.
Presolve time = 0.00 sec. (0.09 ticks)
Barrier time = 0.01 sec. (0.08 ticks)

Dual simplex solved model.


Log for 'Initiate' Clone_1 (V12.7.1.0) Sat Mar 24 20:28:51 2018

Tried aggregator 0 times.
No LP presolve or aggregator reductions.
Presolve time = 0.00 sec. (0.09 ticks)
Parallel mode: using up to 6 threads for barrier.
Barrier time = 0.02 sec. (0.09 ticks)

Dual simplex solved model.


Log for 'Initial' Clone_1 (V12.7.1.0) Sat Mar 24 20:29:22 2018

Tried aggregator 0 times.
No LP presolve or aggregator reductions.
Presolve time = 0.00 sec. (0.09 ticks)
Barrier time = 0.00 sec. (0.08 ticks)

Dual simplex solved model.


Log for 'Initiate' Clone_1 (V12.7.1.0) Sat Mar 24 20:36:10 2018

Tried aggregator 0 times.
No LP presolve or aggregator reductions.
Presolve time = 0.00 sec. (0.09 ticks)
Parallel mode: using up to 6 threads for barrier.
Barrier time = 0.00 sec. (0.09 ticks)

Dual simplex solved model.


Log for 'Initiate' Clone_1 (V12.7.1.0) Sat Mar 24 20:36:46 2018

Tried aggregator 0 times.
No LP presolve or aggregator reductions.
Presolve time = 0.00 sec. (0.09 ticks)
Parallel mode: using up to 6 threads for barrier.
Number of nonzeros in lower triangle of A*A' = 347
Total time for automatic ordering = 0.00 sec. (0.01 ticks)
Barrier time = 0.00 sec. (0.13 ticks)

Dual simplex solved model.


Log for 'Initiate' Clone_1 (V12.7.1.0) Sat Mar 24 20:37:21 2018

Tried aggregator 0 times.
No LP presolve or aggregator reductions.
Presolve time = 0.00 sec. (0.09 ticks)
Barrier time = 0.00 sec. (0.08 ticks)

Dual simplex solved model.


Log for 'Initial' Clone_1 (V12.7.1.0) Sat Mar 24 20:37:55 2018

Tried aggregator 0 times.
No LP presolve or aggregator reductions.
Presolve time = 0.00 sec. (0.09 ticks)
Parallel mode: using up to 6 threads for barrier.
Barrier time = 0.00 sec. (0.09 ticks)

Dual simplex solved model.

